40 63 28 84 6 17 20 52 1 44 35 26 38 2 12 60 15 47 56 16 85 8 59 79 14 64 95 68 89 75 9 50 91 53 31 65 45 18 11 48 4 27 55 61 23 22 62 73 19 70 37 92 97 46 76 54 0 67 41 71 86 51 39 94 88 33 98 5 93 83 87 66 25 21 36 32 58 96 72 78 34 80 30 49 90 24 69 42 10 99 29 43 82 74 3 77 13 57 81 7 

